x04m01e2t1tp4
3171
3171
3276
3276
3424
3424
3615
3615
3615
3615
3615
3615
3615
3615
3615
3615
3615
3615
3664
3664
3664
3664
3664
3664
3664
3664
3664
3664
3664
3730
3730
3730
3730
3730
3730
3730
3730
3730
3730
3730
3730
3730
3730
3730
3730
3730
3730
3730
3730
3730
3730
3730
3730
3730
3730
3730
3730
3730
3730
3730
3730
3730
3730
3730
3730
3748
3748
3748
3748
3748
3748
3748
3748
3748
3748
3748
3758
3758
3758
3758
3758
3758
3758
3758
3758
3758
3758
3758
3758
3758
3758
3758
3758
3758
3758
3758
3758
3758
3758
3758
3758
3758
3758
3758
3758
3758
3758
3758
3758
3758
3758
3758
3758
3758
3758
3758
3758
3758
3758
3766
3766
3766
3766
3766
3766
3766
3766
3766
3766
3766
3766
3766
3766
3766
3766
3766
3766
3766
3766
3766
3766
3766
3766
3766
3766
3766
3766
3766
3766
3766
3766
3766
3766
3766
3766
3766
3768
3768
3768
3768
3768
3768
3768
3768
3768
3768
3768
3768
3768
3768
3768
3768
3768
3768
3768
3768
3768
3768
3768
3768
3768
3768
3768
3768
3768
3768
3768
3768
3768
3768
3768
3768
3768
3768
3768
3768
3768
3768
3768
3768
3768
3768
3768
3768
3768
3768
3768
3768
3768
3768
3768
3768
3768
3768
3768
3768
3768
3768
3768
3768
3768
3768
3768
3768
3768
3768
3768
3768
3768
3768
3768
3768
3768
3768
3768
3768
3768
3768
3768
3768
3768
3768
3768
3768
3768
3768
3768
3768
3768
3768
3768
3768
3768
3768
3768
3768
3768
3768
3768
3768
3768
3768
3768
3768
3768
3768
3768
3768
3768
3768
3768
3768
3768
3768
3768
3768
3768
3768
3768
3768
3768
3768
3832
3832
3832
3832
3832
3832
3832
3832
3832
3832
3832
3832
3832
3832
3832
3832
3832
3832
3832
3832
3832
3832
3832
3832
3832
3832
3832
3832
3832
3832
3832
3832
3832
3832
3832
3832
3832
3832
3832
3832
3832
3832
3832
3832
3832
3832
3832
3832
3832
3832
3832
3832
3832
3832
3832
3832
3832
3832
3832
3832
3832
3832
3832
3832
3832
3832
3832
3832
3832
3832
3883
3883
3883
3883
3883
3893
3893
3893
3893
3893
3893
3893
3893
3893
3893
3893
3893
3893
3893
3893
3893
3893
3893
3893
3893
3893
3893
3893
3893
3893
3893
3893
3893
3893
3893
3893
3893
3893
3893
3893
3893
3893
3893
3893
3893
3893
3893
3893
3893
3893
3893
3893
3893
3893
3893
3893
3893
3893
3893
3893
3893
3893
3893
3893
3893
3893
3893
3893
3893
3893
3893
3893
3893
3893
3893
3893
3893
3893
3893
3893
3893
3893
3893
3893
3893
3893
3893
3893
3893
3893
3893
3893
3893
3893
3893
3893
3893
3893
3893
3893
3893
3893
3893
3893
3893
3893
3893
3893
3893
3893
3893
3893
3893
3893
3893
3893
3893
3893
3893
3893
3893
3893
3893
3893
3893
3893
3893
3893
3893
3893
3893
3893
3893
3893
3893
3893
3893
3893
3893
3893
3893
3893
3893
3893
3893
3893
3893
3893
3893
3893
3893
3893
3893
3893
3893
3893
3893
3893
3893
3893
3893
3893
3893
3893
3893
3893
3893
3893
3893
3893
3893
3893
3893
3893
3893
3893
3893
3893
3893
3893
3893
3893
3893
3893
3893
3893
3893
3893
3893
3893
3893
3893
3893
3893
3893
3893
3893
3893
3893
3893
3893
3893
3893
3893
3893
3893
3893
3893
3893
3893
3893
3893
3893
3893
3893
3893
3893
3893
3893
3893
3893
3893
3893
3893
3893
3893
3893
3893
3893
3893
3893
3893
3893
3893
3905
3905
3905
3905
3905
3905
3905
3905
3905
3911
3911
3911
3911
3911
3911
3921
3921
3941
3941
3941
3957
3957
3957
3957
3957
3957
3957
3957
3957
3957
3957
3957
3957
3957
3957
3957
3957
3957
3957
3957
3957
3957
3957
3957
3957
3957
3957
3957
3957
3957
3957
3957
3957
3957
3957
3957
3957
3957
3957
3957
3957
3957
3957
3957
3957
3957
3957
3957
3957
3957
3957
3957
3957
3957
3957
3957
3957
3957
3957
3957
3957
3957
3957
3957
3957
3957
3957
3957
3957
3957
3957
3957
3957
3957
3957
3957
3957
3957
3957
3957
3957
3957
3957
3957
3957
3957
3957
3957
3957
3957
3957
3957
3957
3957
3957
3957
3957
3957
3957
3957
3957
3957
3957
3957
3957
3957
3957
3957
3957
3957
3957
3957
3957
3957
3957
3957
3957
3957
3957
3957
3957
3957
3957
3957
3957
3957
3957
3957
3957
3957
3957
3957
3957
3957
3957
3957
3957
3957
3957
3957
3957
3957
3957
3957
3957
3957
3957
3957
3957
3957
3957
3957
3957
3957
3957
3959
3959
3959
3959
3959
3959
3959
3959
3959
3959
3959
3959
3959
3959
3959
3959
3959
3959
3959
3959
3959
3959
3959
3959
3959
3959
3959
3959
3959
3959
3959
3959
3959
3959
3959
3959
3959
3959
3959
3959
3959
3959
3959
3959
3959
3959
3959
3959
3959
3959
3959
3959
3959
3959
3959
3959
3959
3959
3959
3959
3959
3985
3985
3985
3985
3985
3985
3985
3985
3985
3985
3985
3985
3985
3985
3985
3985
3985
3985
3985
3985
3985
3985
3985
3985
3985
3985
3985
3985
3985
3985
3985
3985
3985
3985
3985
3985
3985
3985
3985
3985
3985
3985
3985
3985
3985
3985
3985
3985
3985
3985
3985
3985
3985
3985
3985
3985
3985
3985
3985
3985
3985
3985
3985
3985
3985
3985
3985
3985
3985
3985
3985
3985
3985
3985
3985
3985
3985
3985
3985
3985
3985
3985
3985
3985
3985
3985
3985
3985
3985
3985
3985
3985
3985
3985
3985
3985
3985
3985
3985
3985
3985
3985
3985
3985
3985
3985
3985
3985
3985
3985
3985
3985
3985
3985
3985
3985
3985
3985
3985
3985
3985
3985
3985
3985
3985
3985
3985
3985
3985
3985
3985
3985
3985
3985
3985
3985
3985
3985
3985
3985
3985
3985
3985
3985
3985
3985
3985
3985
3985
3985
3985
3985
3985
3985
3985
3985
3985
3985
3985
3985
3985
3985
3985
3985
3985
3985
3985
3985
3985
3985
3985
3985
3985
3985
3985
3985
3985
3985
